StudentsNr = 10;
InstructorsNr = 31;
DaysNr = 1;
SlotsPerDay = 60;
AvailabilitySlotsLenght = 20;
RoomNr = 2;
ProgrammNr = 1;
DegreeNr = 1;
RolesNr = 0;
CoursesNr = 5;
InstructorsProgramm = [{1}, {1}, {1}, {1}, {1}, {1}, {1}, {1}, {1}, {1}, {1}, {1}, {1}, {1}, {1}, {1}, {1}, {1}, {1}, {1}, {1}, {1}, {1}, {1}, {1}, {1}, {1}, {1}, {1}, {1}, {1}];
InstructorRolesPerProgramm = array2d(1..ProgrammNr,{},[]);
InstructorsAvailability = [|1, 1, 1, |1, 1, 1, |1, 1, 1, |1, 1, 1, |1, 1, 1, |0, 1, 1, |0, 1, 1, |0, 1, 0, |0, 1, 1, |0, 1, 1, |0, 1, 1, |0, 1, 1, |0, 0, 1, |1, 1, 1, |1, 1, 1, |0, 1, 1, |1, 1, 1, |0, 1, 1, |0, 0, 1, |1, 1, 1, |0, 0, 1, |0, 1, 0, |1, 1, 1, |1, 0, 0, |0, 1, 1, |0, 1, 1, |0, 1, 1, |1, 1, 1, |0, 0, 1, |1, 0, 0, |0, 0, 1|];
StudentsProgramm = [1, 1, 1, 1, 1, 1, 1, 1, 1, 1];
StudentsDegree = [1, 1, 1, 1, 1, 1, 1, 1, 1, 1];
StudentsSupervisorId = [9, 13, 24, 17, 26, 11, 17, 25, 29, 10];
StudentsCourseIds = [{2}, {1}, {1}, {2}, {4}, {2}, {4}, {2}, {1}, {4}];
StudentsAvailability = [|0, 0, 0, |0, 1, 1, |0, 0, 0, |1, 1, 1, |0, 0, 1, |1, 1, 1, |0, 0, 0, |0, 0, 0, |0, 0, 1, |1, 1, 1|];
TheoryticalMinCard = [2, 2, 1, 2, 2, 2, 1, 2, 1, 2];
CoursesInstructorIds = [{1, 2, 3, 5, 6, 7, 8, 10, 11, 14, 16, 19, 21, 23, 24, 25, 26, 27, 29, 30}, {31}, {2, 5, 6, 7, 11, 12, 13, 14, 18, 20, 23, 24, 26, 27}, {2, 5, 6, 9, 12, 13, 14, 15, 17, 20, 21, 30, 31}, {6, 8, 11, 15, 22, 25, 27, 29}];
RolesDemands = [];
RolesContinuity = [];
ExamLen = [1, 1, 1, 1, 1, 1, 1, 1, 1, 1];
LunchTsMinLen = 0;
LunchStarts = [17..39];
SupervisorAvailable = 0;
OptimalLunchLenght = [2, 1];
OptimalStartTs = [1, 0];
OptimalFinishTs = [2, 60];
MinimizeRooms = 400;
RolesSoftContinuity = array2d(1..2,{},[]);
SameDegreeInRoom = 20;
Mergeability = 0;
